53
20 20
19 17
13 30
6 8
0 30
3 40
16 41
15 36
17 39
4 37
9 36
11 34
3 29
12 6
13 15
1 0
23 26
16 30
21 27
5 30
11 29
18 41
2 22
8 29
11 30
13 1
1 20
18 3
21 15
7 24
2 30
22 31
12 13
17 19
3 26
8 22
16 7
22 22
4 12
0 2
0 9
11 14
16 5
10 13
7 38
10 34
8 39
2 38
21 36
22 33
23 32
18 38
12 38

